 vasp.6.3.2 27Jun22 (build Mar 16 2023 13:30:57) complex
 executed on        HPECrayEX_GCC date 2024.08.07  04:49:42

 INCAR:
   AEXX = 0.15
   ALGO = All
   EDIFF = 1e-05
   EDIFFG = -0.01
   ENCUT = 770
   HFSCREEN = 0.208
   IBRION = 2
   ICORELEVEL = 0
   ISIF = 3
   ISMEAR = 0
   ISPIN = 0
   ISYM = -1
   KPAR = 4
   LASPH = True
   LHFCALC = True
   LORBIT = 11
   LREAL = False
   LSUBROT = False
   LVHAR = True
   LWAVE = True
   NCORE = 2
   NEDOS = 2000
   NELM = 200
   LSORBIT = TRUE
   NSW = 200
   POTIM = 0.2
   PREC = Accurate
   PRECFOCK = Fast
   SIGMA = 0.05

 POTCAR:    PAW_PBE Te 08Apr2002
 POTCAR:    PAW_PBE Pb 08Apr2002
|           W    W    AA    RRRRR   N    N  II  N    N   GGGG   !!!           |
|           W    W   A  A   R    R  NN   N  II  NN   N  G    G  !!!           |
|           W    W  A    A  R    R  N N  N  II  N N  N  G       !!!           |
|           W WW W  AAAAAA  RRRRR   N  N N  II  N  N N  G  GGG   !            |
|           WW  WW  A    A  R   R   N   NN  II  N   NN  G    G                |
|           W    W  A    A  R    R  N    N  II  N    N   GGGG   !!!           |
|     You use a magnetic or noncollinear calculation, but did not specify     |
|     the initial magnetic moment with the MAGMOM tag. Note that a            |
|     default of 1 will be used for all atoms. This ferromagnetic setup       |
|     may break the symmetry of the crystal, in particular it may rule        |
|     out finding an antiferromagnetic solution. Thence, we recommend         |
|     setting the initial magnetic moment manually or verifying carefully     |
|     that this magnetic setup is desired.                                    |

 POTCAR:    PAW_PBE Te 08Apr2002
   VRHFIN =Te: s2p4

   TITEL  = PAW_PBE Te 08Apr2002
   POMASS =  127.600; ZVAL   =    6.000    mass and valenz
   ENMAX  =  174.982; ENMIN  =  131.236 eV

 POTCAR:    PAW_PBE Pb 08Apr2002
   VRHFIN =Pb:

   TITEL  = PAW_PBE Pb 08Apr2002
   POMASS =  207.200; ZVAL   =    4.000    mass and valenz
   ENMAX  =   97.973; ENMIN  =   73.480 eV

 WARNING: PSMAXN for non-local potential too small
          PSMAXN should be >   14.216141646966818       NTYP=           2
  PAW_PBE Te 08Apr2002                  :
  PAW_PBE Pb 08Apr2002                  :

 POSCAR: Te4 Pb4
  positions in direct lattice
 exchange correlation table for  LEXCH =        8
   RHO(1)=    0.500       N(1)  =     2000
   RHO(2)=  100.500       N(2)  =     4000

 ion  position               nearest neighbor table
   1  0.000  0.000  0.000-   5 3.27   6 3.27   7 3.27   5 3.27   6 3.27   7 3.27
   2  0.000  0.500  0.500-   5 3.27   6 3.27   8 3.27   6 3.27   5 3.27   8 3.27
   3  0.500  0.000  0.500-   5 3.27   7 3.27   8 3.27   7 3.27   8 3.27   5 3.27
   4  0.500  0.500  0.000-   6 3.27   7 3.27   8 3.27   8 3.27   7 3.27   6 3.27
   5  0.000  0.000  0.500-   1 3.27   2 3.27   3 3.27   1 3.27   2 3.27   3 3.27
   6  0.000  0.500  0.000-   1 3.27   2 3.27   4 3.27   2 3.27   1 3.27   4 3.27
   7  0.500  0.000  0.000-   1 3.27   3 3.27   4 3.27   3 3.27   4 3.27   1 3.27
   8  0.500  0.500  0.500-   2 3.27   3 3.27   4 3.27   4 3.27   3 3.27   2 3.27

IMPORTANT INFORMATION: All symmetrisations will be switched off!
NOSYMM: (Re-)initialisation of all symmetry stuff for point group C_1.

                                     Primitive cell

  volume of cell :     279.9565

  direct lattice vectors                    reciprocal lattice vectors
     6.541793610  0.000000000  0.000000000     0.152863276 -0.000000000  0.000000000
     0.000000000  6.541793610  0.000000000     0.000000000  0.152863276  0.000000000
     0.000000000  0.000000000  6.541793610    -0.000000000 -0.000000000  0.152863276

  length of vectors
     6.541793610  6.541793610  6.541793610     0.152863276  0.152863276  0.152863276

  position of ions in fractional coordinates (direct lattice)
     0.000000000  0.000000000  0.000000000
     1.000000000  0.500000000  0.500000000
     0.500000000  0.000000000  0.500000000
     0.500000000  0.500000000  0.000000000
     0.000000000  0.000000000  0.500000000
     1.000000000  0.500000000  0.000000000
     0.500000000  0.000000000  0.000000000
     0.500000000  0.500000000  0.500000000

  ion indices of the primitive-cell ions
   primitive index   ion index
                 1           1
                 2           2
                 3           3
                 4           4
                 5           5
                 6           6
                 7           7
                 8           8

 KPOINTS: Automatic mesh

Automatic generation of k-mesh.
 Grid dimensions read from file:
 generate k-points for:    4    4    4

 Generating k-lattice:

  Cartesian coordinates                     Fractional coordinates (reciprocal lattice)
     0.038215819 -0.000000000  0.000000000     0.250000000 -0.000000000  0.000000000
     0.000000000  0.038215819  0.000000000     0.000000000  0.250000000  0.000000000
    -0.000000000 -0.000000000  0.038215819     0.000000000 -0.000000000  0.250000000

  Length of vectors
     0.038215819  0.038215819  0.038215819

  Shift w.r.t. Gamma in fractional coordinates (k-lattice)
     0.000000000  0.000000000  0.000000000

 Subroutine IBZKPT returns following result:

 Found     64 irreducible k-points:

 Following reciprocal coordinates:
            Coordinates               Weight
  0.000000  0.000000  0.000000      1.000000
  0.250000  0.000000  0.000000      1.000000
  0.500000  0.000000  0.000000      1.000000
 -0.250000  0.000000  0.000000      1.000000
  0.000000  0.250000  0.000000      1.000000
  0.250000  0.250000  0.000000      1.000000
  0.500000  0.250000  0.000000      1.000000
 -0.250000  0.250000  0.000000      1.000000
  0.000000  0.500000  0.000000      1.000000
  0.250000  0.500000  0.000000      1.000000
  0.500000  0.500000  0.000000      1.000000
 -0.250000  0.500000  0.000000      1.000000
  0.000000 -0.250000  0.000000      1.000000
  0.250000 -0.250000  0.000000      1.000000
  0.500000 -0.250000  0.000000      1.000000
 -0.250000 -0.250000  0.000000      1.000000
  0.000000  0.000000  0.250000      1.000000
  0.250000  0.000000  0.250000      1.000000
  0.500000  0.000000  0.250000      1.000000
 -0.250000  0.000000  0.250000      1.000000
  0.000000  0.250000  0.250000      1.000000
  0.250000  0.250000  0.250000      1.000000
  0.500000  0.250000  0.250000      1.000000
 -0.250000  0.250000  0.250000      1.000000
  0.000000  0.500000  0.250000      1.000000
  0.250000  0.500000  0.250000      1.000000
  0.500000  0.500000  0.250000      1.000000
 -0.250000  0.500000  0.250000      1.000000
  0.000000 -0.250000  0.250000      1.000000
  0.250000 -0.250000  0.250000      1.000000
  0.500000 -0.250000  0.250000      1.000000
 -0.250000 -0.250000  0.250000      1.000000
  0.000000  0.000000  0.500000      1.000000
  0.250000  0.000000  0.500000      1.000000
  0.500000  0.000000  0.500000      1.000000
 -0.250000  0.000000  0.500000      1.000000
  0.000000  0.250000  0.500000      1.000000
  0.250000  0.250000  0.500000      1.000000
  0.500000  0.250000  0.500000      1.000000
 -0.250000  0.250000  0.500000      1.000000
  0.000000  0.500000  0.500000      1.000000
  0.250000  0.500000  0.500000      1.000000
  0.500000  0.500000  0.500000      1.000000
 -0.250000  0.500000  0.500000      1.000000
  0.000000 -0.250000  0.500000      1.000000
  0.250000 -0.250000  0.500000      1.000000
  0.500000 -0.250000  0.500000      1.000000
 -0.250000 -0.250000  0.500000      1.000000
  0.000000  0.000000 -0.250000      1.000000
  0.250000  0.000000 -0.250000      1.000000
  0.500000  0.000000 -0.250000      1.000000
 -0.250000  0.000000 -0.250000      1.000000
  0.000000  0.250000 -0.250000      1.000000
  0.250000  0.250000 -0.250000      1.000000
  0.500000  0.250000 -0.250000      1.000000
 -0.250000  0.250000 -0.250000      1.000000
  0.000000  0.500000 -0.250000      1.000000
  0.250000  0.500000 -0.250000      1.000000
  0.500000  0.500000 -0.250000      1.000000
 -0.250000  0.500000 -0.250000      1.000000
  0.000000 -0.250000 -0.250000      1.000000
  0.250000 -0.250000 -0.250000      1.000000
  0.500000 -0.250000 -0.250000      1.000000
 -0.250000 -0.250000 -0.250000      1.000000

 Following cartesian coordinates:
            Coordinates               Weight
  0.000000  0.000000  0.000000      1.000000
  0.038216  0.000000  0.000000      1.000000
  0.076432  0.000000  0.000000      1.000000
 -0.038216  0.000000  0.000000      1.000000
  0.000000  0.038216  0.000000      1.000000
  0.038216  0.038216  0.000000      1.000000
  0.076432  0.038216  0.000000      1.000000
 -0.038216  0.038216  0.000000      1.000000
  0.000000  0.076432  0.000000      1.000000
  0.038216  0.076432  0.000000      1.000000
  0.076432  0.076432  0.000000      1.000000
 -0.038216  0.076432  0.000000      1.000000
  0.000000 -0.038216  0.000000      1.000000
  0.038216 -0.038216  0.000000      1.000000
  0.076432 -0.038216  0.000000      1.000000
 -0.038216 -0.038216  0.000000      1.000000
  0.000000  0.000000  0.038216      1.000000
  0.038216  0.000000  0.038216      1.000000
  0.076432  0.000000  0.038216      1.000000
 -0.038216  0.000000  0.038216      1.000000
  0.000000  0.038216  0.038216      1.000000
  0.038216  0.038216  0.038216      1.000000
  0.076432  0.038216  0.038216      1.000000
 -0.038216  0.038216  0.038216      1.000000
  0.000000  0.076432  0.038216      1.000000
  0.038216  0.076432  0.038216      1.000000
  0.076432  0.076432  0.038216      1.000000
 -0.038216  0.076432  0.038216      1.000000
  0.000000 -0.038216  0.038216      1.000000
  0.038216 -0.038216  0.038216      1.000000
  0.076432 -0.038216  0.038216      1.000000
 -0.038216 -0.038216  0.038216      1.000000
  0.000000  0.000000  0.076432      1.000000
  0.038216  0.000000  0.076432      1.000000
  0.076432  0.000000  0.076432      1.000000
 -0.038216  0.000000  0.076432      1.000000
  0.000000  0.038216  0.076432      1.000000
  0.038216  0.038216  0.076432      1.000000
  0.076432  0.038216  0.076432      1.000000
 -0.038216  0.038216  0.076432      1.000000
  0.000000  0.076432  0.076432      1.000000
  0.038216  0.076432  0.076432      1.000000
  0.076432  0.076432  0.076432      1.000000
 -0.038216  0.076432  0.076432      1.000000
  0.000000 -0.038216  0.076432      1.000000
  0.038216 -0.038216  0.076432      1.000000
  0.076432 -0.038216  0.076432      1.000000
 -0.038216 -0.038216  0.076432      1.000000
  0.000000  0.000000 -0.038216      1.000000
  0.038216  0.000000 -0.038216      1.000000
  0.076432  0.000000 -0.038216      1.000000
 -0.038216  0.000000 -0.038216      1.000000
  0.000000  0.038216 -0.038216      1.000000
  0.038216  0.038216 -0.038216      1.000000
  0.076432  0.038216 -0.038216      1.000000
 -0.038216  0.038216 -0.038216      1.000000
  0.000000  0.076432 -0.038216      1.000000
  0.038216  0.076432 -0.038216      1.000000
  0.076432  0.076432 -0.038216      1.000000
 -0.038216  0.076432 -0.038216      1.000000
  0.000000 -0.038216 -0.038216      1.000000
  0.038216 -0.038216 -0.038216      1.000000
  0.076432 -0.038216 -0.038216      1.000000
[...]
  751                    map_scatter                           0.000126               16   9
  752        depsum                                0.005692                            2   3
  753          m_sumb_d                              0.005016                          4   4
  754        augmentation_charge                   0.089832                            2   3
  755          m_sumb_d                              0.000345                          2   4
  756          fft3d_mpi                             0.026367                          8   4
  757            fftbas_mpi                            0.026358                        8   5
  758              fftbas_plan_mpi                       0.026354                      8   6
  759                dfftw_execute                         0.003881                   24   7
  760                map_backward                          0.022221                   16   7
  761                  map_gather                            0.000945                  8   8
  762                  m_alltoallv_z                         0.019410                  8   8
  763                  map_scatter                           0.001823                  8   8

 Flat profile

 rpromu_hf                            3281.051585      163840
 racc0mu_hf                           2632.776350      108544
 fock_charge_mu                       2492.397474      108544
 dfftw_execute                        2271.623172    41804961
 vhamil_trace                         1475.544830     6553600
 m_alltoallv_z                        1248.918590    13935383
 map_scatter                           605.528800    13935383
 map_gather                            532.777565    13935383
 apply_gfac_exchange                   253.267419     6553600
 calc_dllmm_trans                      236.281563    11862016
 m_sumb_d                              226.517462    16390679
 fftbas_plan_mpi                       114.341486    13934987
 total_time                             80.201023           1
 fock_set_gfac_vkpt                     59.339060       51200
 fock_fwd                               58.195254         800
 m_ireduce_z_to                         56.948376      102400
 apply_gfac_der                         55.629016      294912
 m_ibcast_z_from                        46.510720      127744
 phaser_hf                              36.151611       54272
 fock_force                             34.328791           3
 fftwav_mpi                             33.382412      229154
 eccp_nl_fock                           30.391394    21233664
 overl_fock                             28.139897     6553600
 eccp                                   19.196528        2976
 vhamil                                 17.374428        1425
 w1_copy                                16.240352      111955
 map_forward                            15.077584    14158138
 spher                                  13.349034         684
 map_backward                           12.490181    13711836
 edwav                                  11.785634          44
 pw_charge                              11.391170        1504
 apply_gfac_weight                       9.384018      294912
 fft3d_mpi                               7.078268    13934987
 m_alltoall_d                            6.955130       29751
 fftbas_mpi                              6.617077    13934987
 potlok                                  6.393430          52
 pdssyex_zheevx                          5.501606         864
 gemm                                    4.421326       45840
 phase                                   3.966898        1907
 lapack                                  3.921721         561
 fock_set_gfac_der                       3.709135        3072
 proj1                                   3.256659        2641
 m_bcast_z                               2.724925        5037
 fock_set_fsg_der                        2.550230           3
 fock_set_fsg                            2.007044           3
 setdij_                                 1.915127         130
 lincom                                  1.741922        2336
 orth1                                   1.671182        4083
 sphpro_fast                             1.567023           4
 set_rsgf_all                            1.542722          54
 augmentation_charge                     1.504252          47
 fornl                                   1.397216           3
 projxyz                                 1.340467          48
 eddiag                                  1.153846          27
 work_mul_crexp                          1.083325       45840
 elmin_all                               1.081335           3
 crexp_mul_wave                          0.930510       42256
 eddav                                   0.850717           5
 w1_dscal                                0.691195         704
 force_and_stress                        0.647007           3
 fock_all_dblbuf                         0.536487          50
 ggemm                                   0.404238         721
 fftext_mpi                              0.339064        6050
 soft_charge                             0.283801          47
 redis_pw                                0.241041        6995
 fock_bck                                0.229464         800
 rspher_all                              0.145554          30
 choleski                                0.136152         768
 fock_ace_acc_apply                      0.119330          96
 kinhamil                                0.113252        1425
 set_charge                              0.083645          47
 hamiltmu                                0.082103         561
 fft_and_gather                          0.076479         848
 w1_dot                                  0.067306         736
 vnlac0                                  0.060420        2865
 overl1                                  0.058603        2161
 wrk_allocate                            0.053007           3
 m_bcast_d                               0.052566        1151
 reduce                                  0.048772         800
 overl                                   0.048343        3202
 apply_precond                           0.040529         401
 densta                                  0.038707          58
 fft_gq                                  0.037498          47
 pothar                                  0.028267          52
 contraction                             0.027803       55296
 brgrid                                  0.025740           1
 redis_proj                              0.019271       12324
 set_dd_paw                              0.015681          54
 depsum                                  0.015471          47
 strkin                                  0.015381           3
 strenl                                  0.013064           3
 strehar                                 0.011132           3
 setup_precond                           0.010800         160
 strelo                                  0.010657           3
 forloc                                  0.010490           3
 forhar                                  0.010404           3
 wavpre_noio                             0.009086           2
 orthch                                  0.008227          47
 w1_daxpy                                0.006509          96
 stufak                                  0.005528           3
 fordep                                  0.004536           3
 hamilt_local                            0.004246         864
 waitgth                                 0.004080         800
 newband                                 0.003878         641
 potlok_metagga                          0.002281          51
 waitred                                 0.002233         800
 rsp                                     0.001281           3
 projlat_der                             0.001276          48
 w1_projall                              0.001144         401
 shift_bands_between_low_high            0.000960          80
 redis_pw_all                            0.000867          44
 fewald                                  0.000617           3
 truncate_high_frequency_w1              0.000378         721
 fock_ace_construct                      0.000377           1
 set_dd_magatom                          0.000138           6
 proj                                    0.000126          48
 wrk_deallocate                          0.000126           3
 rcp                                     0.000107           3
 redis_pw_over_bands                     0.000087          49
 proall                                  0.000062           3
 crpa_reader                             0.000045           1
 rotate_active_occupied_orbital          0.000006           3
 FERMAT_RAZOR                            0.000001           1
 vectorpot                               0.000000           1
  summed up times    16098.322793006897

 Accumulative profile

 total_time                          16098.015120           1
 fock_all_dblbuf                     14379.402169          50
 fock_fwd                            14247.853906         800
 elmin_all                           14021.019079           3
 eddiag                               7779.538134          27
 edwav                                6388.882171          44
 fock_charge_mu                       5157.863192      108544
 fft3d_mpi                            4814.145050    13934987
 fftbas_mpi                           4807.066782    13934987
 fftbas_plan_mpi                      4800.449705    13934987
 rpromu_hf                            3341.155925      163840
 racc0mu_hf                           2665.465718      108544
 dfftw_execute                        2271.623172    41804961
 vhamil_trace                         1475.544830     6553600
 force_and_stress                     1393.463550           3
 fock_force                           1371.343971           3
 map_backward                         1277.189153    13711836
 m_alltoallv_z                        1248.918590    13935383
 map_forward                          1137.603568    14158138
 map_scatter                           605.528800    13935383
 map_gather                            532.777565    13935383
 apply_gfac_exchange                   253.267419     6553600
 calc_dllmm_trans                      236.281563    11862016
 m_sumb_d                              226.517462    16390679
 fftwav_mpi                            128.921538      229154
 set_dd_paw                            100.695037          54
 fock_set_gfac_vkpt                     93.469478       51200
 reduce                                 56.997148         800
 m_ireduce_z_to                         56.948376      102400
 apply_gfac_der                         55.629016      294912
 fft_and_gather                         48.232872         848
 m_ibcast_z_from                        46.510720      127744
 phaser_hf                              36.151611       54272
 eccp_nl_fock                           30.391394    21233664
 overl_fock                             28.139897     6553600
 eddav                                  24.159372           5
 set_charge                             23.725862          47
 soft_charge                            21.492735          47
 eccp                                   19.478138        2976
 vhamil                                 17.374428        1425
 w1_copy                                16.240352      111955
 hamilt_local                           13.682215         864
 spher                                  13.349034         684
 strenl                                 12.905582           3
 pw_charge                              11.391170        1504
 potlok                                 10.922131          52
 hamiltmu                                9.911007         561
 apply_gfac_weight                       9.384018      294912
 m_alltoall_d                            6.955130       29751
 fftext_mpi                              5.992978        6050
 redis_pw                                5.848723        6995
 fock_set_gfac_der                       5.730327        3072
 vnlac0                                  5.690834        2865
 pdssyex_zheevx                          5.501607         864
 kinhamil                                4.820101        1425
 gemm                                    4.421326       45840
 proj1                                   4.287187        2641
 fock_bck                                4.139667         800
 phase                                   3.966898        1907
 lapack                                  3.921721         561
 wrk_allocate                            2.746493           3
 m_bcast_z                               2.724925        5037
 fock_set_fsg_der                        2.556143           3
 projlat_der                             2.439929          48
 newband                                 2.065538         641
 augmentation_charge                     2.038201          47
 fock_set_fsg                            2.023753           3
 setdij_                                 1.960905         130
 lincom                                  1.741922        2336
 sphpro_fast                             1.681170           4
 orth1                                   1.671182        4083
 set_rsgf_all                            1.542722          54
 fornl                                   1.538700           3
 redis_proj                              1.366719       12324
 projxyz                                 1.362272          48
 orthch                                  1.330976          47
 work_mul_crexp                          1.083325       45840
 w1_projall                              1.068977         401
 crexp_mul_wave                          0.930510       42256
 redis_pw_over_bands                     0.788916          49
 redis_pw_all                            0.788829          44
 w1_dscal                                0.691195         704
 ggemm                                   0.404238         721
 fft_gq                                  0.365192          47
 densta                                  0.262417          58
 fock_ace_acc_apply                      0.248079          96
 fordep                                  0.246081           3
 proall                                  0.207021           3
 rspher_all                              0.145554          30
 choleski                                0.136152         768
 depsum                                  0.111281          47
 proj                                    0.101182          48
 w1_dot                                  0.074013         736
 fock_ace_construct                      0.066646           1
 overl1                                  0.058603        2161
 m_bcast_d                               0.052566        1151
 overl                                   0.048343        3202
 pothar                                  0.041672          52
 apply_precond                           0.040529         401
 fewald                                  0.031249           3
 contraction                             0.027803       55296
 brgrid                                  0.025740           1
 strkin                                  0.017894           3
 strehar                                 0.012615           3
 wavpre_noio                             0.012452           2
 setup_precond                           0.012236         160
 forhar                                  0.011099           3
 strelo                                  0.011081           3
 forloc                                  0.010629           3
 w1_daxpy                                0.006509          96
 stufak                                  0.005528           3
 waitgth                                 0.004080         800
 potlok_metagga                          0.002281          51
 waitred                                 0.002233         800
 rsp                                     0.001281           3
 shift_bands_between_low_high            0.000960          80
 truncate_high_frequency_w1              0.000378         721
 set_dd_magatom                          0.000138           6
 wrk_deallocate                          0.000126           3
 rcp                                     0.000107           3
 crpa_reader                             0.000045           1
 rotate_active_occupied_orbital          0.000006           3
 FERMAT_RAZOR                            0.000001           1
 vectorpot                               0.000000           1

Profiling took  39.455574 29.289246  0.004877  0.004673 seconds
Profiling took  29.284995 seconds